
Welcome to IBM(R) ILOG(R) CPLEX(R) Interactive Optimizer 22.1.1.0
  with Simplex, Mixed Integer & Barrier Optimizers
5725-A06 5725-A29 5724-Y48 5724-Y49 5724-Y54 5724-Y55 5655-Y21
Copyright IBM Corp. 1988, 2022.  All Rights Reserved.

Type 'help' for a list of available commands.
Type 'help' followed by a command name for more
information on commands.

CPLEX> Selected objective sense:  MINIMIZE
Selected objective  name:  00000000
Selected RHS        name:  RHS1
Selected bound      name:  BOUND
Problem 'ee.mps' read.
Read time = 0.03 sec. (3.14 ticks)
CPLEX> New value for time limit in seconds: 7200
CPLEX> New value for parallel optimization mode: -1
CPLEX> New value for default parallel thread count: 40
CPLEX> New value for mixed integer optimality gap tolerance: 1e-13
CPLEX> Version identifier: 22.1.1.0 | 2022-11-28 | 9160aff4d
CPXPARAM_Threads                                 40
CPXPARAM_Parallel                                -1
CPXPARAM_TimeLimit                               7200
CPXPARAM_MIP_Tolerances_MIPGap                   1e-13
Found incumbent of value 0.000000 after 0.00 sec. (0.31 ticks)
Tried aggregator 2 times.
MIP Presolve eliminated 184 rows and 2745 columns.
MIP Presolve modified 5862 coefficients.
Aggregator did 713 substitutions.
Reduced MIP has 3624 rows, 7744 columns, and 28667 nonzeros.
Reduced MIP has 7744 binaries, 0 generals, 0 SOSs, and 0 indicators.
Presolve time = 0.07 sec. (68.81 ticks)
Probing time = 0.03 sec. (5.30 ticks)
Tried aggregator 1 time.
Detecting symmetries...
Reduced MIP has 3624 rows, 7744 columns, and 28667 nonzeros.
Reduced MIP has 7744 binaries, 0 generals, 0 SOSs, and 0 indicators.
Presolve time = 0.02 sec. (21.94 ticks)
Probing time = 0.02 sec. (5.09 ticks)
Clique table members: 18558.
MIP emphasis: balance optimality and feasibility.
MIP search method: dynamic search.
Parallel mode: opportunistic, using up to 40 threads.
Root relaxation solution time = 0.21 sec. (176.57 ticks)

        Nodes                                         Cuts/
   Node  Left     Objective  IInf  Best Integer    Best Bound    ItCnt     Gap

*     0+    0                            0.0000  -1.31000e+13              --- 
*     0+    0                      -3.30000e+12  -1.31000e+13           296.97%
*     0+    0                      -4.40000e+12  -1.31000e+13           197.73%
*     0+    0                      -4.40000e+12  -1.31000e+13           197.73%
*     0+    0                      -5.50000e+12  -1.31000e+13           138.18%
*     0+    0                      -6.60000e+12  -1.31000e+13            98.48%
      0     0  -1.30900e+13   102  -6.60000e+12  -1.30900e+13     3316   98.33%
*     0+    0                      -1.30900e+13  -1.30900e+13             0.00%
*     0+    0                      -1.30900e+13  -1.30900e+13             0.00%
      0     0  -1.30900e+13   155  -1.30900e+13      Cuts: 75     3831    0.00%
*     0+    0                      -1.30900e+13  -1.30900e+13             0.00%
      0     0  -1.30900e+13   189  -1.30900e+13      Cuts: 88     4113    0.00%
*     0+    0                      -1.30900e+13  -1.30900e+13             0.00%

Repeating presolve.
Tried aggregator 2 times.
MIP Presolve eliminated 2418 rows and 5520 columns.
MIP Presolve added 68 rows and 0 columns.
MIP Presolve modified 157 coefficients.
Aggregator did 335 substitutions.
Reduced MIP has 939 rows, 1843 columns, and 6451 nonzeros.
Reduced MIP has 1843 binaries, 0 generals, 0 SOSs, and 0 indicators.
Presolve time = 0.03 sec. (24.97 ticks)
Probing fixed 14 vars, tightened 0 bounds.
Probing time = 0.02 sec. (22.04 ticks)
Tried aggregator 2 times.
MIP Presolve eliminated 16 rows and 30 columns.
Aggregator did 1 substitutions.
Reduced MIP has 922 rows, 1806 columns, and 6340 nonzeros.
Reduced MIP has 1806 binaries, 0 generals, 0 SOSs, and 0 indicators.
Presolve time = 0.01 sec. (8.69 ticks)
Probing time = 0.00 sec. (2.69 ticks)
Tried aggregator 1 time.
Detecting symmetries...
Reduced MIP has 922 rows, 1806 columns, and 6340 nonzeros.
Reduced MIP has 1806 binaries, 0 generals, 0 SOSs, and 0 indicators.
Presolve time = 0.01 sec. (8.39 ticks)
Represolve time = 0.09 sec. (87.63 ticks)
Probing time = 0.00 sec. (2.70 ticks)
Clique table members: 4261.
MIP emphasis: balance optimality and feasibility.
MIP search method: dynamic search.
Parallel mode: opportunistic, using up to 40 threads.
Root relaxation solution time = 0.02 sec. (16.59 ticks)

        Nodes                                         Cuts/
   Node  Left     Objective  IInf  Best Integer    Best Bound    ItCnt     Gap

*     0+    0                      -1.30900e+13  -1.30900e+13             0.00%
      0     0  -1.30900e+13   120  -1.30900e+13  -1.30900e+13     4846    0.00%
      0     0  -1.30900e+13   135  -1.30900e+13      Cuts: 89     4979    0.00%
      0     0  -1.30900e+13   128  -1.30900e+13      Cuts: 69     5077    0.00%
      0     0  -1.30900e+13   156  -1.30900e+13      Cuts: 57     5129    0.00%
      0     2  -1.30900e+13   156  -1.30900e+13  -1.30900e+13     5129    0.00%
Elapsed time = 1.43 sec. (980.80 ticks, tree = 0.02 MB, solutions = 11)

Clique cuts applied:  30
Cover cuts applied:  170
Flow cuts applied:  1
Mixed integer rounding cuts applied:  22
Zero-half cuts applied:  9
Lift and project cuts applied:  17
Gomory fractional cuts applied:  17

Root node processing (before b&c):
  Real time             =    1.21 sec. (981.41 ticks)
Parallel b&c, 40 threads:
  Real time             =    0.49 sec. (101.43 ticks)
  Sync time (average)   =    0.21 sec.
  Wait time (average)   =    0.00 sec.
                          ------------
Total (root+branch&cut) =    1.69 sec. (1082.84 ticks)

Solution pool: 17 solutions saved.

MIP - Integer optimal solution:  Objective = -1.3089998991e+13
Solution time =    1.73 sec.  Iterations = 24148  Nodes = 861
Deterministic time = 1082.87 ticks  (626.20 ticks/sec)

CPLEX> Solution 'p18' written to file 'ee.sol'.
CPLEX> 